0 61 63
1 71 71
2 68 70
3 62 69
4 66 67
5 64 68
6 46 68
7 49 69
8 61 66
9 42 64
10 50 61
11 55 57
12 56 58
13 57 56
14 53 55
15 45 56
16 46 53
17 40 50
18 50 50
19 41 50
20 49 48
21 37 46
22 42 45
23 45 48
24 26 47
25 39 46
26 37 41
27 35 42
28 39 42
29 39 42
30 29 42
31 33 39
32 23 37
33 25 34
34 35 34
35 29 32
36 20 32
37 9 29
38 17 25
39 2 24
40 8 22
41 18 20
42 16 20
43 16 19
44 13 16
45 6 14
46 7 12
47 10 14
48 14 13
49 6 12
50 10 11
51 8 11
52 10 11
53 10 11
54 10 10
55 6 9
56 7 9
57 8 8
58 5 6
59 4 5
60 4 5
61 6 6
62 2 4
63 3 3
64 3 3
65 1 2
66 1 2

